%Chk=H2O
# UHF/6-31G** OPT FREQ

H2O+ UHF

1 2
 O  0.0 0.0 0.0
 H1 0.0 0.0 1.0
 H2 0.0 1.0 0.0

--Link1--
%Chk=H2O
# UMP2/6-31G** Geom=Check Guess=Read OPT FREQ

H2O+ UMP2

1 2

--Link1--
# B3PW91/6-31G** OPT FREQ

H3O+ B3PW91

1 1
 O  0.0 0.0 0.0
 H1 0.0 0.0 1.0
 H2 0.0 1.0 0.0
 H3 0.0 1.0 1.0

