%BLOCK LATTICE_ABC
ang
	16.66566792	8.33283396	16.82438907
	90.0		90.0		90.0
%ENDBLOCK LATTICE_ABC

KPOINT_MP_GRID 2 4 1

KPOINT_MP_OFFSET 0.0 0.0 0.0

%BLOCK SPECIES_POT
	Pd	Pd_00PBE.usp
%ENDBLOCK SPECIES_POT

FIX_ALL_CELL : TRUE

FIX_COM : FALSE


%BLOCK POSITIONS_ABS
ang
	 Pd 	      0.00000000 	       0.00000000 	      0.00000000 
	 Pd 	      0.00000000 	       2.77761133 	     -0.00000000 
	 Pd 	     -0.00000000 	       5.55522266 	      0.00000000 
	 Pd 	      2.77761133 	       0.00000000 	      0.00000000 
	 Pd 	      2.77761133 	       2.77761133 	     -0.00000000 
	 Pd 	      2.77761133 	       5.55522266 	     -0.00000000 
	 Pd 	      5.55522266 	       0.00000000 	     -0.00000000 
	 Pd 	      5.55522266 	       2.77761133 	      0.00000000 
	 Pd 	      5.55522266 	       5.55522266 	     -0.00000000 
	 Pd 	      8.33283400 	      -0.00000000 	     -0.00000000 
	 Pd 	      8.33283400 	       2.77761133 	     -0.00000000 
	 Pd 	      8.33283400 	       5.55522266 	     -0.00000000 
	 Pd 	     11.11044533 	       0.00000000 	     -0.00000000 
	 Pd 	     11.11044533 	       2.77761133 	     -0.00000000 
	 Pd 	     11.11044533 	       5.55522266 	     -0.00000000 
	 Pd 	     13.88805666 	       0.00000000 	      0.00000000 
	 Pd 	     13.88805666 	       2.77761133 	     -0.00000000 
	 Pd 	     13.88805666 	       5.55522266 	     -0.00000000 
	 Pd 	      1.38840391 	       1.38924839 	      1.93583568 
	 Pd 	      1.38840385 	       4.16597471 	      1.93583673 
	 Pd 	      1.39469476 	       6.94402793 	      1.93913928 
	 Pd 	      4.16103297 	       1.38304187 	      1.92945566 
	 Pd 	      4.16103290 	       4.17218093 	      1.92945674 
	 Pd 	      4.18386797 	       6.94402793 	      1.94554329 
	 Pd 	      6.93261215 	       1.38439434 	      1.91635131 
	 Pd 	      6.93261210 	       4.17082874 	      1.91635244 
	 Pd 	      6.93131720 	       6.94402793 	      1.90993500 
	 Pd 	      9.73305335 	       1.38439438 	      1.91635694 
	 Pd 	      9.73305330 	       4.17082845 	      1.91635794 
	 Pd 	      9.73434508 	       6.94402804 	      1.90993859 
	 Pd 	     12.50463397 	       1.38304222 	      1.92946403 
	 Pd 	     12.50463392 	       4.17218068 	      1.92946491 
	 Pd 	     12.48179849 	       6.94402799 	      1.94555138 
	 Pd 	     15.27726882 	       1.38924815 	      1.93583890 
	 Pd 	     15.27726876 	       4.16597490 	      1.93583984 
	 Pd 	     15.27097748 	       6.94402809 	      1.93914217 
	 Pd 	      0.00000154 	      -0.00284948 	      3.88689190 
	 Pd 	      0.00000237 	       2.77761199 	      3.89276089 
	 Pd 	      0.00000162 	       5.55807170 	      3.88689374 
	 Pd 	      2.78271843 	      -0.00329893 	      3.88280342 
	 Pd 	      2.76847521 	       2.77761184 	      3.87866177 
	 Pd 	      2.78271814 	       5.55852097 	      3.88280531 
	 Pd 	      5.56200359 	      -0.00171241 	      3.87926648 
	 Pd 	      5.53469313 	       2.77761167 	      3.86991181 
	 Pd 	      5.56200322 	       5.55693476 	      3.87926771 
	 Pd 	      8.33283241 	      -0.04020458 	      3.80617190 
	 Pd 	      8.33282913 	       2.77761091 	      3.83080966 
	 Pd 	      8.33283193 	       5.59542754 	      3.80617217 
	 Pd 	     11.10366160 	      -0.00171161 	      3.87928239 
	 Pd 	     11.13097587 	       2.77761108 	      3.86992352 
	 Pd 	     11.10366186 	       5.55693445 	      3.87928296 
	 Pd 	     13.88295232 	      -0.00329924 	      3.88281891 
	 Pd 	     13.89719428 	       2.77761159 	      3.87867587 
	 Pd 	     13.88295259 	       5.55852166 	      3.88282009 
	 Pd 	      1.38775285 	       1.38687099 	      5.82373581 
	 Pd 	      1.38775287 	       4.16835079 	      5.82373734 
	 Pd 	      1.39430715 	       6.94402931 	      5.82526328 
	 Pd 	      4.12366142 	       1.39151363 	      5.82635243 
	 Pd 	      4.12366172 	       4.16370782 	      5.82635349 
	 Pd 	      4.16223253 	       6.94402910 	      5.84005521 
	 Pd 	      6.85315762 	       1.20412522 	      5.80210362 
	 Pd 	      6.85315773 	       4.35109799 	      5.80210341 
	 Pd 	      6.96110919 	       6.94402852 	      5.85416868 
	 Pd 	      9.81250175 	       1.20412344 	      5.80210595 
	 Pd 	      9.81250132 	       4.35109889 	      5.80210527 
	 Pd 	      9.70454473 	       6.94402836 	      5.85417604 
	 Pd 	     12.54200997 	       1.39151378 	      5.82636926 
	 Pd 	     12.54200944 	       4.16370801 	      5.82636936 
	 Pd 	     12.50343666 	       6.94402883 	      5.84006876 
	 Pd 	     15.27792616 	       1.38687130 	      5.82374306 
	 Pd 	     15.27792568 	       4.16835071 	      5.82374417 
	 Pd 	     15.27137151 	       6.94402926 	      5.82527301 
%ENDBLOCK POSITIONS_ABS

